p cnf 430 1488
-191 29 0
-191 -22 0
-191 -84 0
-191 101 0
-191 -24 0
191 -29 22 84 -101 24 0
-192 135 0
-192 -88 0
-192 173 0
-192 -65 0
-192 -169 0
192 -135 88 -173 65 169 0
-193 146 0
-193 62 0
-193 -98 0
-193 -142 0
-193 185 0
193 -146 -62 98 142 -185 0
-194 49 0
-194 137 0
-194 40 0
-194 -105 0
-194 -3 0
194 -49 -137 -40 105 3 0
-195 -73 0
-195 165 0
-195 -37 0
-195 55 0
-195 70 0
195 73 -165 37 -55 -70 0
191 192 193 194 195 0
-196 -51 0
-196 79 0
-196 -77 0
-196 71 0
-196 138 0
196 51 -79 77 -71 -138 0
-197 -161 0
-197 -118 0
-197 -140 0
-197 108 0
-197 17 0
197 161 118 140 -108 -17 0
-198 157 0
-198 -92 0
-198 151 0
-198 -39 0
-198 5 0
198 -157 92 -151 39 -5 0
-199 -74 0
-199 137 0
-199 -16 0
-199 -114 0
-199 -39 0
199 74 -137 16 114 39 0
-200 -46 0
-200 -157 0
-200 101 0
-200 60 0
-200 165 0
200 46 157 -101 -60 -165 0
196 197 198 199 200 0
-201 176 0
-201 -124 0
-201 71 0
-201 37 0
-201 27 0
201 -176 124 -71 -37 -27 0
-202 -1 0
-202 87 0
-202 -95 0
-202 48 0
-202 -131 0
202 1 -87 95 -48 131 0
-203 -104 0
-203 79 0
-203 82 0
-203 -100 0
-203 123 0
203 104 -79 -82 100 -123 0
-204 -52 0
-204 110 0
-204 -105 0
-204 118 0
-204 -175 0
204 52 -110 105 -118 175 0
-205 -52 0
-205 -142 0
-205 -19 0
-205 -53 0
-205 173 0
205 52 142 19 53 -173 0
201 202 203 204 205 0
-206 -16 0
-206 72 0
-206 73 0
-206 -128 0
-206 52 0
206 16 -72 -73 128 -52 0
-207 83 0
-207 -167 0
-207 -55 0
-207 119 0
-207 147 0
207 -83 167 55 -119 -147 0
-208 -92 0
-208 -155 0
-208 121 0
-208 -74 0
-208 -167 0
208 92 155 -121 74 167 0
-209 -175 0
-209 168 0
-209 61 0
-209 116 0
-209 -117 0
209 175 -168 -61 -116 117 0
-210 -137 0
-210 61 0
-210 -146 0
-210 -40 0
-210 59 0
210 137 -61 146 40 -59 0
206 207 208 209 210 0
-211 -14 0
-211 -61 0
-211 -123 0
-211 78 0
-211 163 0
211 14 61 123 -78 -163 0
-212 65 0
-212 -7 0
-212 -3 0
-212 -154 0
-212 -102 0
212 -65 7 3 154 102 0
-213 -6 0
-213 -46 0
-213 129 0
-213 -76 0
-213 -32 0
213 6 46 -129 76 32 0
-214 -144 0
-214 -34 0
-214 -44 0
-214 146 0
-214 -125 0
214 144 34 44 -146 125 0
-215 -85 0
-215 90 0
-215 78 0
-215 -30 0
-215 114 0
215 85 -90 -78 30 -114 0
211 212 213 214 215 0
-216 149 0
-216 -31 0
-216 3 0
-216 10 0
-216 114 0
216 -149 31 -3 -10 -114 0
-217 -81 0
-217 -52 0
-217 61 0
-217 -21 0
-217 64 0
217 81 52 -61 21 -64 0
-218 29 0
-218 98 0
-218 -23 0
-218 26 0
-218 1 0
218 -29 -98 23 -26 -1 0
-219 -135 0
-219 -33 0
-219 23 0
-219 117 0
-219 86 0
219 135 33 -23 -117 -86 0
-220 25 0
-220 8 0
-220 -128 0
-220 39 0
-220 109 0
220 -25 -8 128 -39 -109 0
216 217 218 219 220 0
-221 -168 0
-221 19 0
-221 -165 0
-221 -49 0
-221 -150 0
221 168 -19 165 49 150 0
-222 -77 0
-222 1 0
-222 -73 0
-222 -174 0
-222 -166 0
222 77 -1 73 174 166 0
-223 30 0
-223 96 0
-223 -146 0
-223 87 0
-223 83 0
223 -30 -96 146 -87 -83 0
-224 103 0
-224 3 0
-224 -56 0
-224 140 0
-224 -17 0
224 -103 -3 56 -140 17 0
-225 -134 0
-225 110 0
-225 -185 0
-225 -179 0
-225 -80 0
225 134 -110 185 179 80 0
221 222 223 224 225 0
-226 -42 0
-226 35 0
-226 -4 0
-226 -188 0
-226 -173 0
226 42 -35 4 188 173 0
-227 -108 0
-227 -50 0
-227 6 0
-227 155 0
-227 -48 0
227 108 50 -6 -155 48 0
-228 -181 0
-228 180 0
-228 -150 0
-228 -170 0
-228 -152 0
228 181 -180 150 170 152 0
-229 104 0
-229 110 0
-229 62 0
-229 -23 0
-229 79 0
229 -104 -110 -62 23 -79 0
-230 -73 0
-230 98 0
-230 -157 0
-230 139 0
-230 117 0
230 73 -98 157 -139 -117 0
226 227 228 229 230 0
-231 -177 0
-231 59 0
-231 -145 0
-231 -162 0
-231 -32 0
231 177 -59 145 162 32 0
-232 -69 0
-232 -92 0
-232 -41 0
-232 -20 0
-232 -5 0
232 69 92 41 20 5 0
-233 7 0
-233 -182 0
-233 -61 0
-233 96 0
-233 84 0
233 -7 182 61 -96 -84 0
-234 166 0
-234 132 0
-234 -41 0
-234 87 0
-234 -42 0
234 -166 -132 41 -87 42 0
-235 82 0
-235 -159 0
-235 76 0
-235 130 0
-235 170 0
235 -82 159 -76 -130 -170 0
231 232 233 234 235 0
-236 -137 0
-236 -54 0
-236 -63 0
-236 150 0
-236 -89 0
236 137 54 63 -150 89 0
-237 -178 0
-237 95 0
-237 -156 0
-237 38 0
-237 -16 0
237 178 -95 156 -38 16 0
-238 87 0
-238 33 0
-238 103 0
-238 -189 0
-238 -18 0
238 -87 -33 -103 189 18 0
-239 -90 0
-239 -185 0
-239 -92 0
-239 145 0
-239 -161 0
239 90 185 92 -145 161 0
-240 -23 0
-240 71 0
-240 91 0
-240 157 0
-240 -34 0
240 23 -71 -91 -157 34 0
236 237 238 239 240 0
-241 -79 0
-241 126 0
-241 120 0
-241 -1 0
-241 -55 0
241 79 -126 -120 1 55 0
-242 -53 0
-242 65 0
-242 -77 0
-242 -124 0
-242 4 0
242 53 -65 77 124 -4 0
-243 106 0
-243 -98 0
-243 -107 0
-243 -73 0
-243 -143 0
243 -106 98 107 73 143 0
-244 -157 0
-244 4 0
-244 -52 0
-244 -109 0
-244 40 0
244 157 -4 52 109 -40 0
-245 -66 0
-245 -152 0
-245 56 0
-245 31 0
-245 -85 0
245 66 152 -56 -31 85 0
241 242 243 244 245 0
-246 95 0
-246 177 0
-246 48 0
-246 178 0
-246 -140 0
246 -95 -177 -48 -178 140 0
-247 -180 0
-247 -187 0
-247 -23 0
-247 -8 0
-247 -87 0
247 180 187 23 8 87 0
-248 -12 0
-248 169 0
-248 -182 0
-248 183 0
-248 165 0
248 12 -169 182 -183 -165 0
-249 -10 0
-249 155 0
-249 107 0
-249 89 0
-249 -45 0
249 10 -155 -107 -89 45 0
-250 -28 0
-250 48 0
-250 178 0
-250 -157 0
-250 -124 0
250 28 -48 -178 157 124 0
246 247 248 249 250 0
-251 3 0
-251 -73 0
-251 2 0
-251 90 0
-251 -87 0
251 -3 73 -2 -90 87 0
-252 -83 0
-252 -129 0
-252 111 0
-252 75 0
-252 55 0
252 83 129 -111 -75 -55 0
-253 -74 0
-253 112 0
-253 -119 0
-253 57 0
-253 -78 0
253 74 -112 119 -57 78 0
-254 -115 0
-254 -111 0
-254 43 0
-254 11 0
-254 167 0
254 115 111 -43 -11 -167 0
-255 189 0
-255 32 0
-255 -190 0
-255 -136 0
-255 -66 0
255 -189 -32 190 136 66 0
251 252 253 254 255 0
-256 166 0
-256 21 0
-256 -98 0
-256 -140 0
-256 45 0
256 -166 -21 98 140 -45 0
-257 55 0
-257 -48 0
-257 -187 0
-257 -58 0
-257 86 0
257 -55 48 187 58 -86 0
-258 -61 0
-258 -145 0
-258 52 0
-258 -190 0
-258 157 0
258 61 145 -52 190 -157 0
-259 71 0
-259 26 0
-259 134 0
-259 88 0
-259 -83 0
259 -71 -26 -134 -88 83 0
-260 154 0
-260 -135 0
-260 30 0
-260 -90 0
-260 -89 0
260 -154 135 -30 90 89 0
256 257 258 259 260 0
-261 95 0
-261 -13 0
-261 154 0
-261 25 0
-261 112 0
261 -95 13 -154 -25 -112 0
-262 2 0
-262 88 0
-262 -1 0
-262 81 0
-262 -160 0
262 -2 -88 1 -81 160 0
-263 -61 0
-263 114 0
-263 -150 0
-263 -137 0
-263 -126 0
263 61 -114 150 137 126 0
-264 -48 0
-264 143 0
-264 -80 0
-264 81 0
-264 -74 0
264 48 -143 80 -81 74 0
-265 -107 0
-265 100 0
-265 -104 0
-265 -155 0
-265 -174 0
265 107 -100 104 155 174 0
261 262 263 264 265 0
-266 -156 0
-266 188 0
-266 38 0
-266 -18 0
-266 23 0
266 156 -188 -38 18 -23 0
-267 -96 0
-267 95 0
-267 14 0
-267 -93 0
-267 27 0
267 96 -95 -14 93 -27 0
-268 67 0
-268 -173 0
-268 -57 0
-268 150 0
-268 -86 0
268 -67 173 57 -150 86 0
-269 -63 0
-269 55 0
-269 -187 0
-269 -155 0
-269 -45 0
269 63 -55 187 155 45 0
-270 -122 0
-270 188 0
-270 -67 0
-270 178 0
-270 -136 0
270 122 -188 67 -178 136 0
266 267 268 269 270 0
-271 41 0
-271 6 0
-271 -158 0
-271 -138 0
-271 67 0
271 -41 -6 158 138 -67 0
-272 -28 0
-272 -75 0
-272 -101 0
-272 -159 0
-272 -63 0
272 28 75 101 159 63 0
-273 147 0
-273 85 0
-273 88 0
-273 115 0
-273 -167 0
273 -147 -85 -88 -115 167 0
-274 -14 0
-274 34 0
-274 -99 0
-274 86 0
-274 50 0
274 14 -34 99 -86 -50 0
-275 126 0
-275 -150 0
-275 148 0
-275 -123 0
-275 176 0
275 -126 150 -148 123 -176 0
271 272 273 274 275 0
-276 -154 0
-276 57 0
-276 -43 0
-276 -126 0
-276 -109 0
276 154 -57 43 126 109 0
-277 173 0
-277 -113 0
-277 65 0
-277 142 0
-277 -52 0
277 -173 113 -65 -142 52 0
-278 -146 0
-278 85 0
-278 -44 0
-278 6 0
-278 -64 0
278 146 -85 44 -6 64 0
-279 91 0
-279 71 0
-279 26 0
-279 39 0
-279 -59 0
279 -91 -71 -26 -39 59 0
-280 -109 0
-280 108 0
-280 118 0
-280 127 0
-280 -119 0
280 109 -108 -118 -127 119 0
276 277 278 279 280 0
-281 165 0
-281 88 0
-281 130 0
-281 -181 0
-281 115 0
281 -165 -88 -130 181 -115 0
-282 98 0
-282 87 0
-282 -133 0
-282 -49 0
-282 -115 0
282 -98 -87 133 49 115 0
-283 -71 0
-283 118 0
-283 -108 0
-283 -51 0
-283 184 0
283 71 -118 108 51 -184 0
-284 -188 0
-284 56 0
-284 -142 0
-284 78 0
-284 75 0
284 188 -56 142 -78 -75 0
-285 103 0
-285 -62 0
-285 -29 0
-285 115 0
-285 122 0
285 -103 62 29 -115 -122 0
281 282 283 284 285 0
-286 81 0
-286 127 0
-286 89 0
-286 -172 0
-286 153 0
286 -81 -127 -89 172 -153 0
-287 -8 0
-287 -43 0
-287 -190 0
-287 108 0
-287 -156 0
287 8 43 190 -108 156 0
-288 79 0
-288 121 0
-288 31 0
-288 -42 0
-288 33 0
288 -79 -121 -31 42 -33 0
-289 140 0
-289 -10 0
-289 38 0
-289 25 0
-289 -60 0
289 -140 10 -38 -25 60 0
-290 8 0
-290 -121 0
-290 150 0
-290 -158 0
-290 116 0
290 -8 121 -150 158 -116 0
286 287 288 289 290 0
-291 -130 0
-291 113 0
-291 -21 0
-291 150 0
-291 10 0
291 130 -113 21 -150 -10 0
-292 -87 0
-292 -28 0
-292 45 0
-292 -83 0
-292 106 0
292 87 28 -45 83 -106 0
-293 -27 0
-293 71 0
-293 -159 0
-293 -154 0
-293 -143 0
293 27 -71 159 154 143 0
-294 -101 0
-294 11 0
-294 171 0
-294 -182 0
-294 77 0
294 101 -11 -171 182 -77 0
-295 -57 0
-295 -119 0
-295 -72 0
-295 7 0
-295 -4 0
295 57 119 72 -7 4 0
291 292 293 294 295 0
-296 73 0
-296 -72 0
-296 92 0
-296 90 0
-296 181 0
296 -73 72 -92 -90 -181 0
-297 -11 0
-297 111 0
-297 109 0
-297 85 0
-297 67 0
297 11 -111 -109 -85 -67 0
-298 184 0
-298 10 0
-298 122 0
-298 22 0
-298 -186 0
298 -184 -10 -122 -22 186 0
-299 -35 0
-299 3 0
-299 -71 0
-299 -100 0
-299 44 0
299 35 -3 71 100 -44 0
-300 92 0
-300 -151 0
-300 -51 0
-300 39 0
-300 -3 0
300 -92 151 51 -39 3 0
296 297 298 299 300 0
-301 52 0
-301 112 0
-301 115 0
-301 185 0
-301 -180 0
301 -52 -112 -115 -185 180 0
-302 101 0
-302 87 0
-302 182 0
-302 -179 0
-302 -125 0
302 -101 -87 -182 179 125 0
-303 -33 0
-303 56 0
-303 66 0
-303 88 0
-303 -31 0
303 33 -56 -66 -88 31 0
-304 26 0
-304 136 0
-304 -190 0
-304 23 0
-304 -147 0
304 -26 -136 190 -23 147 0
-305 25 0
-305 -29 0
-305 34 0
-305 69 0
-305 119 0
305 -25 29 -34 -69 -119 0
301 302 303 304 305 0
-306 -81 0
-306 -80 0
-306 -112 0
-306 -170 0
-306 -116 0
306 81 80 112 170 116 0
-307 -17 0
-307 112 0
-307 -159 0
-307 -55 0
-307 -175 0
307 17 -112 159 55 175 0
-308 -19 0
-308 -162 0
-308 -147 0
-308 17 0
-308 50 0
308 19 162 147 -17 -50 0
-309 105 0
-309 -80 0
-309 -15 0
-309 -184 0
-309 -150 0
309 -105 80 15 184 150 0
-310 174 0
-310 146 0
-310 -50 0
-310 144 0
-310 -149 0
310 -174 -146 50 -144 149 0
306 307 308 309 310 0
-311 164 0
-311 45 0
-311 60 0
-311 -149 0
-311 -179 0
311 -164 -45 -60 149 179 0
-312 14 0
-312 110 0
-312 102 0
-312 -181 0
-312 109 0
312 -14 -110 -102 181 -109 0
-313 -39 0
-313 -81 0
-313 9 0
-313 66 0
-313 -62 0
313 39 81 -9 -66 62 0
-314 -44 0
-314 -67 0
-314 -33 0
-314 162 0
-314 86 0
314 44 67 33 -162 -86 0
-315 -49 0
-315 -95 0
-315 139 0
-315 -104 0
-315 178 0
315 49 95 -139 104 -178 0
311 312 313 314 315 0
-316 -182 0
-316 -46 0
-316 12 0
-316 120 0
-316 16 0
316 182 46 -12 -120 -16 0
-317 168 0
-317 -63 0
-317 -67 0
-317 -100 0
-317 -120 0
317 -168 63 67 100 120 0
-318 145 0
-318 -122 0
-318 147 0
-318 91 0
-318 29 0
318 -145 122 -147 -91 -29 0
-319 -151 0
-319 -80 0
-319 90 0
-319 -72 0
-319 -50 0
319 151 80 -90 72 50 0
-320 30 0
-320 172 0
-320 -123 0
-320 68 0
-320 -57 0
320 -30 -172 123 -68 57 0
316 317 318 319 320 0
-321 -76 0
-321 -28 0
-321 -175 0
-321 -148 0
-321 123 0
321 76 28 175 148 -123 0
-322 -134 0
-322 -19 0
-322 -120 0
-322 -15 0
-322 77 0
322 134 19 120 15 -77 0
-323 179 0
-323 -94 0
-323 -148 0
-323 -18 0
-323 143 0
323 -179 94 148 18 -143 0
-324 99 0
-324 -133 0
-324 168 0
-324 -87 0
-324 -101 0
324 -99 133 -168 87 101 0
-325 69 0
-325 -13 0
-325 63 0
-325 -134 0
-325 50 0
325 -69 13 -63 134 -50 0
321 322 323 324 325 0
-326 87 0
-326 -1 0
-326 147 0
-326 68 0
-326 -7 0
326 -87 1 -147 -68 7 0
-327 29 0
-327 -120 0
-327 -22 0
-327 -52 0
-327 -147 0
327 -29 120 22 52 147 0
-328 146 0
-328 -24 0
-328 49 0
-328 -158 0
-328 -150 0
328 -146 24 -49 158 150 0
-329 20 0
-329 165 0
-329 61 0
-329 -60 0
-329 86 0
329 -20 -165 -61 60 -86 0
-330 63 0
-330 82 0
-330 -167 0
-330 -172 0
-330 -30 0
330 -63 -82 167 172 30 0
326 327 328 329 330 0
-331 -167 0
-331 103 0
-331 -137 0
-331 -18 0
-331 -93 0
331 167 -103 137 18 93 0
-332 41 0
-332 12 0
-332 -48 0
-332 -47 0
-332 -169 0
332 -41 -12 48 47 169 0
-333 26 0
-333 98 0
-333 183 0
-333 -157 0
-333 -13 0
333 -26 -98 -183 157 13 0
-334 55 0
-334 -153 0
-334 -9 0
-334 29 0
-334 -174 0
334 -55 153 9 -29 174 0
-335 -70 0
-335 -72 0
-335 152 0
-335 -21 0
-335 -146 0
335 70 72 -152 21 146 0
331 332 333 334 335 0
-336 189 0
-336 -150 0
-336 -103 0
-336 -59 0
-336 -36 0
336 -189 150 103 59 36 0
-337 -156 0
-337 26 0
-337 177 0
-337 -189 0
-337 -106 0
337 156 -26 -177 189 106 0
-338 -9 0
-338 48 0
-338 -8 0
-338 -103 0
-338 88 0
338 9 -48 8 103 -88 0
-339 -59 0
-339 -164 0
-339 27 0
-339 -170 0
-339 -183 0
339 59 164 -27 170 183 0
-340 133 0
-340 -45 0
-340 171 0
-340 150 0
-340 -58 0
340 -133 45 -171 -150 58 0
336 337 338 339 340 0
-341 176 0
-341 112 0
-341 41 0
-341 -31 0
-341 89 0
341 -176 -112 -41 31 -89 0
-342 -68 0
-342 116 0
-342 110 0
-342 -61 0
-342 -78 0
342 68 -116 -110 61 78 0
-343 -84 0
-343 77 0
-343 -118 0
-343 -32 0
-343 11 0
343 84 -77 118 32 -11 0
-344 127 0
-344 159 0
-344 -102 0
-344 -154 0
-344 -176 0
344 -127 -159 102 154 176 0
-345 -184 0
-345 103 0
-345 -186 0
-345 -158 0
-345 -16 0
345 184 -103 186 158 16 0
341 342 343 344 345 0
-346 -8 0
-346 -38 0
-346 62 0
-346 -42 0
-346 18 0
346 8 38 -62 42 -18 0
-347 110 0
-347 190 0
-347 129 0
-347 159 0
-347 -23 0
347 -110 -190 -129 -159 23 0
-348 47 0
-348 96 0
-348 -104 0
-348 -52 0
-348 -86 0
348 -47 -96 104 52 86 0
-349 64 0
-349 -80 0
-349 156 0
-349 -130 0
-349 -108 0
349 -64 80 -156 130 108 0
-350 -91 0
-350 -154 0
-350 -70 0
-350 145 0
-350 -73 0
350 91 154 70 -145 73 0
346 347 348 349 350 0
-351 -70 0
-351 -126 0
-351 67 0
-351 -97 0
-351 184 0
351 70 126 -67 97 -184 0
-352 116 0
-352 -11 0
-352 -129 0
-352 -31 0
-352 -29 0
352 -116 11 129 31 29 0
-353 107 0
-353 160 0
-353 -80 0
-353 -36 0
-353 188 0
353 -107 -160 80 36 -188 0
-354 -177 0
-354 -6 0
-354 -120 0
-354 -29 0
-354 103 0
354 177 6 120 29 -103 0
-355 -97 0
-355 -111 0
-355 156 0
-355 75 0
-355 42 0
355 97 111 -156 -75 -42 0
351 352 353 354 355 0
-356 24 0
-356 -155 0
-356 16 0
-356 49 0
-356 -36 0
356 -24 155 -16 -49 36 0
-357 -54 0
-357 155 0
-357 -158 0
-357 -87 0
-357 133 0
357 54 -155 158 87 -133 0
-358 -135 0
-358 -3 0
-358 172 0
-358 -123 0
-358 -52 0
358 135 3 -172 123 52 0
-359 -55 0
-359 10 0
-359 19 0
-359 -125 0
-359 128 0
359 55 -10 -19 125 -128 0
-360 35 0
-360 -183 0
-360 -53 0
-360 129 0
-360 -30 0
360 -35 183 53 -129 30 0
356 357 358 359 360 0
-361 96 0
-361 92 0
-361 -165 0
-361 116 0
-361 180 0
361 -96 -92 165 -116 -180 0
-362 -157 0
-362 -132 0
-362 -80 0
-362 -151 0
-362 167 0
362 157 132 80 151 -167 0
-363 80 0
-363 -79 0
-363 130 0
-363 -119 0
-363 111 0
363 -80 79 -130 119 -111 0
-364 185 0
-364 112 0
-364 -178 0
-364 -100 0
-364 -4 0
364 -185 -112 178 100 4 0
-365 -20 0
-365 60 0
-365 7 0
-365 147 0
-365 -128 0
365 20 -60 -7 -147 128 0
361 362 363 364 365 0
-366 -39 0
-366 -169 0
-366 -84 0
-366 1 0
-366 -115 0
366 39 169 84 -1 115 0
-367 141 0
-367 -98 0
-367 13 0
-367 -116 0
-367 120 0
367 -141 98 -13 116 -120 0
-368 -181 0
-368 130 0
-368 -81 0
-368 -122 0
-368 93 0
368 181 -130 81 122 -93 0
-369 -176 0
-369 27 0
-369 -118 0
-369 113 0
-369 94 0
369 176 -27 118 -113 -94 0
-370 95 0
-370 -28 0
-370 190 0
-370 -106 0
-370 -61 0
370 -95 28 -190 106 61 0
366 367 368 369 370 0
-371 106 0
-371 99 0
-371 -135 0
-371 39 0
-371 -55 0
371 -106 -99 135 -39 55 0
-372 -189 0
-372 -170 0
-372 172 0
-372 -108 0
-372 144 0
372 189 170 -172 108 -144 0
-373 69 0
-373 9 0
-373 112 0
-373 -156 0
-373 109 0
373 -69 -9 -112 156 -109 0
-374 185 0
-374 -71 0
-374 72 0
-374 80 0
-374 22 0
374 -185 71 -72 -80 -22 0
-375 137 0
-375 -116 0
-375 -50 0
-375 -73 0
-375 21 0
375 -137 116 50 73 -21 0
371 372 373 374 375 0
-376 30 0
-376 144 0
-376 113 0
-376 149 0
-376 133 0
376 -30 -144 -113 -149 -133 0
-377 -162 0
-377 -139 0
-377 120 0
-377 160 0
-377 28 0
377 162 139 -120 -160 -28 0
-378 -176 0
-378 119 0
-378 122 0
-378 36 0
-378 90 0
378 176 -119 -122 -36 -90 0
-379 -68 0
-379 78 0
-379 1 0
-379 -39 0
-379 148 0
379 68 -78 -1 39 -148 0
-380 -154 0
-380 -36 0
-380 -111 0
-380 -156 0
-380 171 0
380 154 36 111 156 -171 0
376 377 378 379 380 0
-381 -37 0
-381 52 0
-381 -139 0
-381 -80 0
-381 87 0
381 37 -52 139 80 -87 0
-382 117 0
-382 -138 0
-382 -134 0
-382 99 0
-382 -116 0
382 -117 138 134 -99 116 0
-383 -143 0
-383 -62 0
-383 158 0
-383 -45 0
-383 73 0
383 143 62 -158 45 -73 0
-384 -13 0
-384 2 0
-384 40 0
-384 -158 0
-384 -71 0
384 13 -2 -40 158 71 0
-385 -128 0
-385 124 0
-385 -30 0
-385 -73 0
-385 -112 0
385 128 -124 30 73 112 0
381 382 383 384 385 0
-386 114 0
-386 39 0
-386 -61 0
-386 -98 0
-386 170 0
386 -114 -39 61 98 -170 0
-387 166 0
-387 160 0
-387 -51 0
-387 134 0
-387 26 0
387 -166 -160 51 -134 -26 0
-388 109 0
-388 -95 0
-388 143 0
-388 85 0
-388 160 0
388 -109 95 -143 -85 -160 0
-389 150 0
-389 -77 0
-389 -159 0
-389 7 0
-389 135 0
389 -150 77 159 -7 -135 0
-390 -40 0
-390 -155 0
-390 -57 0
-390 128 0
-390 68 0
390 40 155 57 -128 -68 0
386 387 388 389 390 0
-391 -180 0
-391 -43 0
-391 -1 0
-391 -135 0
-391 -154 0
391 180 43 1 135 154 0
-392 97 0
-392 -121 0
-392 -54 0
-392 11 0
-392 187 0
392 -97 121 54 -11 -187 0
-393 -17 0
-393 -87 0
-393 122 0
-393 40 0
-393 157 0
393 17 87 -122 -40 -157 0
-394 -75 0
-394 -108 0
-394 160 0
-394 -172 0
-394 62 0
394 75 108 -160 172 -62 0
-395 154 0
-395 31 0
-395 -93 0
-395 49 0
-395 128 0
395 -154 -31 93 -49 -128 0
391 392 393 394 395 0
-396 108 0
-396 -98 0
-396 -89 0
-396 146 0
-396 -121 0
396 -108 98 89 -146 121 0
-397 141 0
-397 -174 0
-397 -142 0
-397 130 0
-397 -107 0
397 -141 174 142 -130 107 0
-398 17 0
-398 -87 0
-398 141 0
-398 -47 0
-398 190 0
398 -17 87 -141 47 -190 0
-399 -89 0
-399 161 0
-399 -69 0
-399 -106 0
-399 78 0
399 89 -161 69 106 -78 0
-400 43 0
-400 174 0
-400 -102 0
-400 123 0
-400 166 0
400 -43 -174 102 -123 -166 0
396 397 398 399 400 0
-401 -121 0
-401 -23 0
-401 -178 0
-401 -69 0
-401 -188 0
401 121 23 178 69 188 0
-402 41 0
-402 12 0
-402 -16 0
-402 -103 0
-402 -159 0
402 -41 -12 16 103 159 0
-403 -30 0
-403 -153 0
-403 125 0
-403 28 0
-403 -13 0
403 30 153 -125 -28 13 0
-404 -36 0
-404 -14 0
-404 74 0
-404 96 0
-404 -83 0
404 36 14 -74 -96 83 0
-405 46 0
-405 -29 0
-405 153 0
-405 -62 0
-405 64 0
405 -46 29 -153 62 -64 0
401 402 403 404 405 0
-406 50 0
-406 -99 0
-406 -183 0
-406 63 0
-406 149 0
406 -50 99 183 -63 -149 0
-407 155 0
-407 -137 0
-407 110 0
-407 -98 0
-407 183 0
407 -155 137 -110 98 -183 0
-408 -73 0
-408 7 0
-408 179 0
-408 88 0
-408 70 0
408 73 -7 -179 -88 -70 0
-409 88 0
-409 179 0
-409 -91 0
-409 -54 0
-409 -41 0
409 -88 -179 91 54 41 0
-410 70 0
-410 -128 0
-410 154 0
-410 -121 0
-410 -60 0
410 -70 128 -154 121 60 0
406 407 408 409 410 0
-411 45 0
-411 -168 0
-411 -175 0
-411 -66 0
-411 171 0
411 -45 168 175 66 -171 0
-412 25 0
-412 -169 0
-412 -46 0
-412 -165 0
-412 -188 0
412 -25 169 46 165 188 0
-413 -39 0
-413 36 0
-413 115 0
-413 -97 0
-413 89 0
413 39 -36 -115 97 -89 0
-414 -143 0
-414 -175 0
-414 -166 0
-414 -31 0
-414 58 0
414 143 175 166 31 -58 0
-415 105 0
-415 -109 0
-415 -71 0
-415 -157 0
-415 -168 0
415 -105 109 71 157 168 0
411 412 413 414 415 0
-416 -47 0
-416 60 0
-416 -106 0
-416 87 0
-416 -151 0
416 47 -60 106 -87 151 0
-417 -67 0
-417 95 0
-417 -185 0
-417 -14 0
-417 -37 0
417 67 -95 185 14 37 0
-418 166 0
-418 -84 0
-418 170 0
-418 -181 0
-418 82 0
418 -166 84 -170 181 -82 0
-419 169 0
-419 -27 0
-419 -178 0
-419 16 0
-419 164 0
419 -169 27 178 -16 -164 0
-420 48 0
-420 119 0
-420 -183 0
-420 164 0
-420 -137 0
420 -48 -119 183 -164 137 0
416 417 418 419 420 0
-421 -93 0
-421 -178 0
-421 50 0
-421 -166 0
-421 82 0
421 93 178 -50 166 -82 0
-422 152 0
-422 118 0
-422 -92 0
-422 95 0
-422 143 0
422 -152 -118 92 -95 -143 0
-423 83 0
-423 160 0
-423 149 0
-423 -14 0
-423 -72 0
423 -83 -160 -149 14 72 0
-424 -63 0
-424 9 0
-424 -169 0
-424 -152 0
-424 125 0
424 63 -9 169 152 -125 0
-425 -62 0
-425 -99 0
-425 -53 0
-425 129 0
-425 90 0
425 62 99 53 -129 -90 0
421 422 423 424 425 0
-426 -189 0
-426 -85 0
-426 163 0
-426 16 0
-426 15 0
426 189 85 -163 -16 -15 0
-427 -180 0
-427 -47 0
-427 -157 0
-427 164 0
-427 -105 0
427 180 47 157 -164 105 0
-428 -125 0
-428 49 0
-428 -8 0
-428 129 0
-428 2 0
428 125 -49 8 -129 -2 0
-429 -84 0
-429 152 0
-429 -158 0
-429 182 0
-429 -140 0
429 84 -152 158 -182 140 0
-430 -33 0
-430 -107 0
-430 182 0
-430 148 0
-430 25 0
430 33 107 -182 -148 -25 0
426 427 428 429 430 0
